# Objective value = 299.102289622636
x[0] 1.0000000424922539e+00
x[1] 1
x[2] 9.9999966198218937e-01
x[3] 1
x[4] 1
x[5] 1
x[6] 1
x[7] 1
x[8] 1
x[9] 1
x[10] 0.999999577838162
x[11] 0
x[12] 1
x[13] 1.0000000424567634e+00
x[14] 1
x[15] 0
x[16] 0
x[17] 0
x[18] 1
x[19] 0
x[20] 1
x[21] 1
x[22] 0
x[23] 0
x[24] 0
x[25] 0
x[26] 0
x[27] 1
x[28] 1
x[29] 1
x[30] 0
x[31] 1
x[32] 1
x[33] 0
x[34] 0
x[35] 0
x[36] 0
x[37] 1
x[38] 0
x[39] 1
x[40] 1
x[41] 1
x[42] 0
x[43] 0
x[44] 1
x[45] 1
x[46] 0
x[47] 0
x[48] 9.9999923744202013e-01
x[49] 1
x[50] 0
x[51] 9.9999966460385858e-01
x[52] 1
x[53] 1
x[54] 1
x[55] 0
x[56] 1
x[57] 1
x[58] 0
x[59] 0
x[60] 1
x[61] 0
x[62] 0
x[63] 0
x[64] 1
x[65] 1
x[66] 3.4030185279503136e-07
x[67] 0
x[68] 0
x[69] 0
x[70] 0
x[71] 1
x[72] 1
x[73] 0
x[74] 1
x[75] 1.0000000991777258e+00
x[76] 0.999999577838162
x[77] 1
x[78] 1
x[79] 0
x[80] 0
x[81] 0
x[82] 1
x[83] 1
x[84] 1
x[85] 0
x[86] 0
x[87] 1
x[88] -2.0941424930052652e-07
x[89] 0
x[90] 1
x[91] 1
x[92] 0
x[93] 0
x[94] 0
x[95] 0
x[96] 4.2127436493570172e-08
x[97] 0
x[98] 0
x[99] 0
x[100] 1
x[101] 1
x[102] 1
x[103] 0
x[104] 1
x[105] 0
x[106] 4.2538034460650205e-07
x[107] 0
x[108] 1
x[109] 0
x[110] 1
x[111] 5.1016235614838644e-07
x[112] 0
x[113] 1
x[114] 0
x[115] 0
x[116] 1
x[117] 1
x[118] 1
x[119] 0
x[120] 0
x[121] 1
x[122] 1
x[123] 0
x[124] 0
x[125] 0
x[126] 1
x[127] 0
x[128] 0
x[129] 5.5297505244148571e-07
x[130] 1
x[131] 1
x[132] 0
x[133] 0
x[134] 1
x[135] 0
x[136] 0
x[137] 1
x[138] 1.0000000424925122e+00
x[139] 3.4033164648566372e-07
x[140] 0
x[141] 9.9999949273912447e-01
x[142] 1
x[143] 4.2538421700766090e-07
x[144] 0
x[145] 3.4033223950812532e-07
x[146] 0
x[147] 0
x[148] 1
x[149] 1
x[150] 0
x[151] 1
x[152] 1
x[153] 1
x[154] 1.0000000424780833e+00
x[155] 0
x[156] 0
x[157] 3.4027520249404212e-07
x[158] 1
x[159] 0
x[160] 9.9999965960385873e-01
x[161] 1
x[162] 6.1280765017181724e-07
x[163] 0
x[164] 1
x[165] 1
x[166] 1
x[167] 0
x[168] 0
x[169] 1
x[170] 0
x[171] 1
x[172] 1
x[173] 9.9999945185627581e-01
x[174] 9.9999966264922058e-01
x[175] 1
x[176] 9.9999911146013432e-01
x[177] 0
x[178] 0
x[179] 7.6580932707150323e-07
x[180] 1
x[181] 0.999999662937192
x[182] 1
x[183] 3.4032579432930467e-07
x[184] 0
x[185] 1
x[186] -4.2549515244516556e-08
x[187] 0
x[188] 1
x[189] 7.6580682654876726e-07
x[190] 0
x[191] 9.9999923410868674e-01
x[192] 1
x[193] 0
x[194] 6.8070071314358473e-07
x[195] 0
x[196] 0.999999872351441
x[197] 0
x[198] 0
x[199] 1
x[200] 0
x[201] 1
x[202] 1
x[203] 9.9999966293719211e-01
x[204] 0
x[205] 0
x[206] 1
x[207] 0
x[208] 1
x[209] 1
x[210] 0
x[211] 0
x[212] 0
x[213] 0
x[214] 1
x[215] 1
x[216] 0
x[217] 0
x[218] -3.9159178941337794e-08
x[219] 1
x[220] 1
x[221] 1
x[222] 0
x[223] 1
x[224] 9.9999991990096637e-01
x[225] 9.9999953195530633e-01
x[226] 0
x[227] 0
x[228] 0
x[229] 0
x[230] 0
x[231] 0
x[232] 3.4032500252614246e-07
x[233] 1
x[234] 0
x[235] 0
x[236] 0
x[237] 0
x[238] 1
x[239] 1
x[240] 0
x[241] 1
x[242] 0
x[243] -2.0941424930052652e-07
x[244] 1
x[245] 0
x[246] 1
x[247] 7.6584243026724557e-07
x[248] 0
x[249] 0
x[250] 3.0086504516365443e-07
x[251] 1
x[252] 0
x[253] 1
x[254] 5.1051682241581891e-07
x[255] 0
x[256] 0
x[257] 1
x[258] 0
x[259] 1.0000001701281347e+00
x[260] 9.9999966460385858e-01
x[261] 0
x[262] 1
x[263] 1
x[264] 1
x[265] 1
x[266] 0
x[267] 1
x[268] 0
x[269] 1
x[270] 0
x[271] 0
x[272] 0
x[273] 1
x[274] 1
x[275] 1
x[276] 1
x[277] 1
x[278] 1
x[279] 0
x[280] 1
x[281] 1
x[282] 0
x[283] 0
x[284] 0
x[285] 1
x[286] 1
x[287] 0
x[288] 9.9999965960385861e-01
x[289] 3.40234506804984e-07
x[290] 1
x[291] 1
x[292] 1
x[293] 1
x[294] 0
x[295] 1
x[296] 1
x[297] 0
x[298] 1
x[299] 0
x[300] 0
x[301] 1
x[302] 1
x[303] 0
x[304] 1
x[305] 0
x[306] 1
x[307] 0
x[308] 0
x[309] 0
x[310] 0
x[311] 0
x[312] -3.9216181911183219e-08
x[313] 0
x[314] 1
x[315] 1
x[316] 9.9999923744202013e-01
x[317] 0
x[318] 1
x[319] 1
x[320] 9.9999966460385858e-01
x[321] 0
x[322] 0
x[323] 9.9999966460385858e-01
x[324] 0.999999446856276
x[325] 0
x[326] 1
x[327] 0
x[328] 1
x[329] 1
x[330] 0.999999446856276
x[331] 0
x[332] 1
x[333] 1
x[334] 0
x[335] 0
x[336] 0
x[337] 1
x[338] 9.9999949440579106e-01
x[339] 1
x[340] 1
x[341] 1
x[342] 0
x[343] 0
x[344] 0
x[345] -3.7549515244516557e-08
x[346] 1
x[347] 0
x[348] 0
x[349] 1
x[350] 1
x[351] 0
x[352] 1
x[353] 0
x[354] 0
x[355] 1
x[356] 3.4014084601906308e-07
x[357] 0
x[358] -4.1425790834099458e-08
x[359] 1
x[360] 0
x[361] 0
x[362] 1
x[363] 1
x[364] 1
x[365] 1
x[366] 0
x[367] 0
x[368] 0
x[369] 0
x[370] 1
x[371] 0
x[372] 1
x[373] 1
x[374] 0
x[375] 0
x[376] 1
x[377] 0
x[378] 5.1048148715692661e-07
x[379] 1
x[380] 0
x[381] 1
x[382] 1
x[383] 1
x[384] 0
x[385] 0
x[386] 0
x[387] 1
x[388] 0
x[389] 0
x[390] 0
x[391] 0
x[392] 0
x[393] 0
x[394] 1
x[395] 1
x[396] 0
x[397] 1
x[398] 1
x[399] 1
x[400] 1
x[401] 0
x[402] 0
x[403] 0
x[404] 0
x[405] 0
x[406] 1
x[407] 0
x[408] 9.9999889704587874e-01
x[409] 3.4034416249388559e-07
x[410] 0
x[411] 0
x[412] 0
x[413] 1
x[414] 1
x[415] 0
x[416] 0
x[417] 9.9999982980192936e-01
x[418] 0
x[419] 1
x[420] 1
x[421] 1
x[422] 1
x[423] 7.6583279516325575e-07
x[424] 0
x[425] 0
x[426] 1
x[427] 1
x[428] 1
x[429] 1
x[430] 1
x[431] 1
x[432] 0
x[433] 0
x[434] 0
x[435] 1
x[436] 0
x[437] 1
x[438] 0
x[439] 1
x[440] 9.9999948940579109e-01
x[441] 0
x[442] 1
x[443] 6.8067587970180667e-07
x[444] 5.5305358509425828e-07
x[445] 0
x[446] 1
x[447] 0
x[448] 1
x[449] -4.2549515244516556e-08
x[450] 0
x[451] 1.0000000992294735e+00
x[452] 0
x[453] 1
x[454] 1
x[455] 1
x[456] 0
x[457] 1
x[458] 1
x[459] 0
x[460] 0
x[461] 0
x[462] 1
x[463] 1.0000000424953022e+00
x[464] 1
x[465] -3.9216181911183219e-08
x[466] 3.3996150196623031e-07
x[467] 4.2528440631223408e-07
x[468] 1
x[469] 9.9999948940579109e-01
x[470] 0
x[471] 5.5303291295012035e-07
x[472] 1
x[473] 0.999999662937192
x[474] 0
x[475] 0
x[476] 1
x[477] 0
x[478] 0
x[479] 0
x[480] 1
x[481] 1
x[482] 0
x[483] 0
x[484] 1
x[485] 9.9999957950482854e-01
x[486] 0
x[487] 1
x[488] 1
x[489] 1
x[490] 1
x[491] 0
x[492] 1
x[493] 1
x[494] 0
x[495] 0
x[496] 9.9999957450482857e-01
x[497] 0
x[498] 0
x[499] 0.999999446856276
x[500] 1
x[501] -4.2549515244516556e-08
x[502] 0
x[503] 1
x[504] 0
x[505] 0
x[506] 0
x[507] 1
x[508] 1
x[509] 9.9999927665820643e-01
x[510] 1
x[511] 1
x[512] 1
x[513] 1.1061588388836795e-06
x[514] 1
x[515] 0
x[516] 9.9999948940579109e-01
x[517] 0
x[518] 4.2544284877908125e-07
x[519] 3.3473630038740112e-07
x[520] 0
x[521] 0
x[522] 1
x[523] 0
x[524] 1
x[525] 1
x[526] 0
x[527] 1
x[528] 0
x[529] 0
x[530] 0
x[531] 1
x[532] 0
x[533] 0
x[534] 0
x[535] 0
x[536] 9.9999970215337386e-01
x[537] 0
x[538] 0
x[539] 1
x[540] 0
x[541] 1
x[542] 0.999999662937192
x[543] 0
x[544] 0
x[545] 0
x[546] 1
x[547] 3.4034422216802360e-07
x[548] 1
x[549] 0
x[550] 1
x[551] 9.9999971842371671e-01
x[552] 1
x[553] 1
x[554] 1
x[555] 1
x[556] 0
x[557] 0
x[558] 1
x[559] 9.9999889871254533e-01
x[560] 9.9999945018960934e-01
x[561] 3.4031526744268907e-07
x[562] 0
x[563] 1
x[564] 1
x[565] 1
x[566] 9.9999923410868718e-01
x[567] 9.9999931920771745e-01
x[568] 0
x[569] 0
x[570] 1
x[571] 0
x[572] 0
x[573] 1
x[574] 1
x[575] 0
x[576] 1
x[577] 0
x[578] 5.1054436701254628e-07
x[579] 0
x[580] 0
x[581] 1
x[582] 0
x[583] 1
x[584] 0
x[585] 1
x[586] 0
x[587] 0
x[588] 9.9999949430477053e-01
x[589] 1
x[590] 1
x[591] 9.9999965960385861e-01
x[592] 1
x[593] 1
x[594] 0
x[595] 0
x[596] 0
x[597] 0
x[598] 0
x[599] 3.4025631483048296e-07
x[600] 1
x[601] 1
x[602] 1
x[603] 0
x[604] 0
x[605] 9.9999945018960934e-01
x[606] 1
x[607] 1
x[608] 0
x[609] 1
x[610] 1
x[611] 1
x[612] 0
x[613] 0
x[614] 3.3995591432809385e-07
x[615] -9.9282201349026877e-08
x[616] 9.9999966392223960e-01
x[617] 0
x[618] 5.1054480977424067e-07
x[619] 0
x[620] 0
x[621] 1
x[622] 0
x[623] 0
x[624] 0
x[625] 0
x[626] 0
x[627] 1
x[628] 0
x[629] 0
x[630] 1
x[631] 1
x[632] 0
x[633] 0
x[634] 0
x[635] 1
x[636] 0
x[637] 0
x[638] 1
x[639] 1
x[640] 0
x[641] 0
x[642] 1
x[643] 3.4544935713808030e-08
x[644] 0
x[645] 1
x[646] 1
x[647] 3.4034669842644704e-07
x[648] 1
x[649] 0
x[650] 0
x[651] 1
x[652] 0
x[653] 1
x[654] 1
x[655] 0
x[656] 0
x[657] 0
x[658] 0
x[659] 9.9999966450283806e-01
x[660] 1
x[661] 0
x[662] 5.5301621330477811e-07
x[663] 1
x[664] 0
x[665] 1
x[666] 0
x[667] 0
x[668] 1
x[669] 0
x[670] 0
x[671] 1
x[672] 2.9772606893607145e-07
x[673] 1
x[674] 1
x[675] 0
x[676] 1
x[677] 9.9999966460385858e-01
x[678] 0
x[679] 0
x[680] 0
x[681] 1
x[682] 1
x[683] 1
x[684] 1.0000000424674205e+00
x[685] 1
x[686] 0
x[687] 0
x[688] 0
x[689] 0
x[690] 0
x[691] 1
x[692] 1
x[693] 1
x[694] 1
x[695] 1
x[696] 1
x[697] 9.9999966293719211e-01
x[698] 9.9999965960385861e-01
x[699] 0
x[700] 1
x[701] 1
x[702] 0
x[703] 1
x[704] 1
x[705] 0
x[706] 0
x[707] 9.9999966460385858e-01
x[708] 0
x[709] 0
x[710] 1
x[711] 1
x[712] 9.9999995745048031e-01
x[713] 0
x[714] 1.2743559034902972e-07
x[715] 1
x[716] 1
x[717] 5.53051093716408e-07
x[718] 5.5298866192300544e-07
x[719] 5.6291916174435751e-07
x[720] 1
x[721] 9.9999943684743264e-01
x[722] 0
x[723] 0
x[724] 0
x[725] 1.0000000424913524e+00
x[726] 0
x[727] 0
x[728] 0
x[729] 3.4032065177103366e-07
x[730] 1
x[731] 0
x[732] 9.9999948940579109e-01
x[733] -4.2549514854655150e-08
x[734] 1
x[735] 0
x[736] 4.2540429214620465e-07
x[737] 1
x[738] 1
x[739] 1
x[740] 1
x[741] 0
x[742] 1
x[743] 0
x[744] 3.4032522051766916e-07
x[745] 1.2667634090469821e-07
x[746] 1
x[747] 1
x[748] 0
x[749] 1
x[750] 0
x[751] 0
x[752] 1
x[753] 1
x[754] -4.2549515244516556e-08
x[755] 3.3906752694794676e-07
x[756] -3.9159178941337794e-08
x[757] 0
x[758] 9.9999965960385861e-01
x[759] 1
x[760] 9.9999923910868715e-01
x[761] 0
x[762] 0
x[763] 0
x[764] 5.6307654251641289e-07
x[765] 1
x[766] 1
x[767] 0
x[768] 0
x[769] 1
x[770] 4.6798586208848966e-07
x[771] 1
x[772] 0
x[773] 0
x[774] 0
x[775] 0
x[776] 0
x[777] 1
x[778] 0
x[779] 1
x[780] 1
x[781] 1
x[782] 1
x[783] 1
x[784] 0
x[785] 0
x[786] 0
x[787] 1
x[788] 5.5295372143552315e-07
x[789] 1
x[790] 1
x[791] 1
x[792] 1
x[793] 3.40316472942552e-07
x[794] 1
x[795] 1
x[796] 1
x[797] 1
x[798] 1
x[799] 0
x[800] 0
x[801] 1
x[802] 1
x[803] 9.9999966460385870e-01
x[804] 1
x[805] 3.4033899434094637e-07
x[806] 4.2537817221490830e-07
x[807] 1
x[808] 0
x[809] 0
x[810] 1
x[811] 0.999999577838162
x[812] 0
x[813] 1
x[814] 1
x[815] 1
x[816] 1
x[817] 1
x[818] 9.9999923410868674e-01
x[819] 0
x[820] 9.9999965960385861e-01
x[821] 0
x[822] 0
x[823] 0
x[824] 0
x[825] 1
x[826] 0
x[827] 0
x[828] 0
x[829] 1
x[830] 9.9999957936349027e-01
x[831] 0
x[832] 1
x[833] 9.9999966293719211e-01
x[834] 1
x[835] 1
x[836] 1
x[837] 1
x[838] 0
x[839] 0
x[840] 1.00000004250159
x[841] 0
x[842] 1
x[843] 1
x[844] 0
x[845] 1
x[846] 0
x[847] 0
x[848] 0
x[849] 0
x[850] 0
x[851] 0
x[852] 0
x[853] 1
x[854] 0
x[855] 0
x[856] 0
x[857] 1
x[858] 1
x[859] 0
x[860] 0
x[861] 1
x[862] 1
x[863] 0
x[864] 1
x[865] 1
x[866] 0
x[867] 0
x[868] 1
x[869] 1
x[870] 0
x[871] 0
x[872] 1
x[873] 1
x[874] 0
x[875] 0.999999662019339
x[876] 0
x[877] 0
x[878] 0
x[879] 0
x[880] 0
x[881] 0
x[882] 0
x[883] 0
x[884] 0
x[885] 1.0000002126505529e+00
x[886] 1
x[887] 1
x[888] 0
x[889] 0.999999662937192
x[890] 0
x[891] 1
x[892] 1
x[893] 1
x[894] 1
x[895] 1
x[896] 0
x[897] 9.9999949285184619e-01
x[898] 0
x[899] 7.6583766708403190e-07
x[900] 1
x[901] 0
x[902] 1
x[903] 1.0000000424959556e+00
x[904] 0
x[905] 1.0000002126961873e+00
x[906] 0
x[907] 1
x[908] 1
x[909] 0
x[910] 1
x[911] 0
x[912] 1.0000000390967863e+00
x[913] 1
x[914] 0
x[915] 5.5305496881487043e-07
x[916] 0
x[917] 1
x[918] 0
x[919] 7.65814835281821e-07
x[920] 5.1053685615227418e-07
x[921] 0
x[922] 1
x[923] 1
x[924] 9.9999943684743253e-01
x[925] 0
x[926] 1
x[927] 3.4031922334848466e-07
x[928] 0
x[929] 1
x[930] 0
x[931] 0
x[932] 1
x[933] 0
x[934] 0
x[935] 0
x[936] 0
x[937] 1
x[938] 1
x[939] 0
x[940] 9.0346443830035658e-07
x[941] 1
x[942] 0
x[943] 3.4034054065037444e-07
x[944] 7.6560442322384760e-07
x[945] 1
x[946] 0
x[947] 0
x[948] 0
x[949] 0
x[950] 0
x[951] 4.2536426985182236e-07
x[952] 0.999999237490903
x[953] 9.9999957950482854e-01
x[954] 0
x[955] 9.9999923750053821e-01
x[956] 3.4032558056161210e-07
x[957] 1
x[958] 9.9999966368634208e-01
x[959] 1
x[960] 0
x[961] 1
x[962] 0
x[963] 1
x[964] 3.4033910747030046e-07
x[965] 0
x[966] 1
x[967] 0
x[968] 0
x[969] 0
x[970] 9.9999965960385873e-01
x[971] 1
x[972] 3.4029147266669691e-07
x[973] 0
x[974] 1
x[975] 0
x[976] 1
x[977] 1
x[978] 1
x[979] 1
x[980] 0
x[981] 1
x[982] 0
x[983] 3.4034588460954254e-07
x[984] 1
x[985] 1
x[986] 9.9999945028223969e-01
x[987] 1
x[988] 1
x[989] 1
x[990] 0
x[991] 0
x[992] 0
x[993] 1
x[994] 0
x[995] 1
x[996] 0
x[997] 0
x[998] 0
x[999] 9.9999923910868671e-01
